# Objective value = 85
WA1n 0
WA1p 0
WA2n 1
WA2p 0
WB1n 0
WB1p 0
WB2n 1
WB2p 0
WC1n 0
WC1p 0
WC2n 1
WC2p 0
WD1n 1
WD1p 0
WD2n 1
WD2p 0
WE1n 0
WE1p 1
WE2n 0
WE2p 1
WF1n 3
WF1p 0
WF2n 1
WF2p 0
WG1n 0
WG1p 5
WH1n 8
WH1p 0
WH2n 1
WH2p 0
WI1n 13
WI1p 0
WI2n 1
WI2p 0
WJ1n 13
WJ1p 0
WJ2n 1
WJ2p 0
WK1n 13
WK1p 0
WK2n 1
WK2p 0
WT1n 6
WT1p 0
WT2n 1
WT2p 0
5 7
a 0
b 0
c 0
d 0
e 0
f 0
g 0
h 0
i 1
j 1
k 0
l 0
m 1
n 0
o 0
p 0
q 0
r 0
s 0
t 0
u 0
v 0
w 0
